x low 4.00
p edge 1000 2968
n 0 1.00
n 70 1.00
n 1 1.00
n 73 1.00
n 74 1.00
n 75 1.00
n 138 1.00
n 140 1.00
n 168 1.00
n 169 1.00
n 175 1.00
n 4 1.00
n 2 1.00
n 5 1.00
n 3 1.00
n 6 1.00
n 69 1.00
n 7 1.00
n 8 1.00
n 10 1.00
n 11 1.00
n 13 1.00
n 14 1.00
n 9 1.00
n 12 1.00
n 15 1.00
n 16 1.00
n 62 1.00
n 63 1.00
n 67 1.00
n 65 1.00
n 19 1.00
n 17 1.00
n 20 1.00
n 21 1.00
n 22 1.00
n 18 1.00
n 25 1.00
n 24 1.00
n 27 1.00
n 26 1.00
n 335 1.00
n 23 1.00
n 30 1.00
n 31 1.00
n 28 1.00
n 29 1.00
n 333 1.00
n 332 1.00
n 331 1.00
n 35 1.00
n 330 1.00
n 34 1.00
n 32 1.00
n 61 1.00
n 33 1.00
n 60 1.00
n 59 1.00
n 37 1.00
n 38 1.00
n 36 1.00
n 313 1.00
n 312 1.00
n 39 1.00
n 40 1.00
n 41 1.00
n 57 1.00
n 50 1.00
n 49 1.00
n 48 1.00
n 43 1.00
n 42 1.00
n 47 1.00
n 44 1.00
n 311 1.00
n 45 1.00
n 46 1.00
n 309 1.00
n 308 1.00
n 306 1.00
n 108 1.00
n 83 1.00
n 84 1.00
n 51 1.00
n 52 1.00
n 53 1.00
n 80 1.00
n 56 1.00
n 54 1.00
n 71 1.00
n 72 1.00
n 79 1.00
n 55 1.00
n 66 1.00
n 58 1.00
n 64 1.00
n 68 1.00
n 78 1.00
n 76 1.00
n 94 1.00
n 135 1.00
n 77 1.00
n 88 1.00
n 89 1.00
n 92 1.00
n 81 1.00
n 87 1.00
n 82 1.00
n 85 1.00
n 86 1.00
n 90 1.00
n 98 1.00
n 107 1.00
n 106 1.00
n 91 1.00
n 97 1.00
n 93 1.00
n 95 1.00
n 133 1.00
n 134 1.00
n 96 1.00
n 132 1.00
n 100 1.00
n 99 1.00
n 993 1.00
n 131 1.00
n 101 1.00
n 128 1.00
n 102 1.00
n 103 1.00
n 127 1.00
n 104 1.00
n 123 1.00
n 124 1.00
n 126 1.00
n 105 1.00
n 117 1.00
n 118 1.00
n 111 1.00
n 109 1.00
n 305 1.00
n 110 1.00
n 112 1.00
n 304 1.00
n 303 1.00
n 113 1.00
n 302 1.00
n 114 1.00
n 115 1.00
n 301 1.00
n 278 1.00
n 116 1.00
n 119 1.00
n 121 1.00
n 122 1.00
n 120 1.00
n 275 1.00
n 274 1.00
n 256 1.00
n 255 1.00
n 273 1.00
n 125 1.00
n 129 1.00
n 146 1.00
n 254 1.00
n 130 1.00
n 136 1.00
n 137 1.00
n 144 1.00
n 139 1.00
n 141 1.00
n 142 1.00
n 151 1.00
n 165 1.00
n 143 1.00
n 145 1.00
n 148 1.00
n 150 1.00
n 147 1.00
n 253 1.00
n 149 1.00
n 994 1.00
n 152 1.00
n 164 1.00
n 153 1.00
n 154 1.00
n 250 1.00
n 155 1.00
n 156 1.00
n 163 1.00
n 161 1.00
n 157 1.00
n 185 1.00
n 184 1.00
n 159 1.00
n 158 1.00
n 183 1.00
n 160 1.00
n 171 1.00
n 162 1.00
n 166 1.00
n 167 1.00
n 170 1.00
n 172 1.00
n 179 1.00
n 178 1.00
n 173 1.00
n 174 1.00
n 177 1.00
n 176 1.00
n 995 1.00
n 180 1.00
n 182 1.00
n 181 1.00
n 201 1.00
n 195 1.00
n 186 1.00
n 194 1.00
n 241 1.00
n 240 1.00
n 187 1.00
n 188 1.00
n 238 1.00
n 192 1.00
n 193 1.00
n 189 1.00
n 191 1.00
n 236 1.00
n 237 1.00
n 190 1.00
n 235 1.00
n 217 1.00
n 208 1.00
n 196 1.00
n 198 1.00
n 197 1.00
n 200 1.00
n 199 1.00
n 207 1.00
n 205 1.00
n 203 1.00
n 202 1.00
n 204 1.00
n 503 1.00
n 998 1.00
n 206 1.00
n 209 1.00
n 210 1.00
n 212 1.00
n 497 1.00
n 500 1.00
n 216 1.00
n 211 1.00
n 215 1.00
n 213 1.00
n 214 1.00
n 222 1.00
n 219 1.00
n 223 1.00
n 498 1.00
n 218 1.00
n 220 1.00
n 221 1.00
n 233 1.00
n 234 1.00
n 231 1.00
n 232 1.00
n 224 1.00
n 229 1.00
n 496 1.00
n 495 1.00
n 225 1.00
n 227 1.00
n 226 1.00
n 271 1.00
n 270 1.00
n 266 1.00
n 468 1.00
n 469 1.00
n 228 1.00
n 264 1.00
n 263 1.00
n 230 1.00
n 262 1.00
n 242 1.00
n 239 1.00
n 243 1.00
n 245 1.00
n 244 1.00
n 249 1.00
n 246 1.00
n 261 1.00
n 260 1.00
n 247 1.00
n 259 1.00
n 248 1.00
n 252 1.00
n 258 1.00
n 251 1.00
n 257 1.00
n 269 1.00
n 268 1.00
n 267 1.00
n 265 1.00
n 272 1.00
n 466 1.00
n 467 1.00
n 284 1.00
n 276 1.00
n 277 1.00
n 463 1.00
n 465 1.00
n 279 1.00
n 280 1.00
n 281 1.00
n 283 1.00
n 282 1.00
n 300 1.00
n 298 1.00
n 299 1.00
n 285 1.00
n 286 1.00
n 403 1.00
n 287 1.00
n 296 1.00
n 297 1.00
n 402 1.00
n 295 1.00
n 288 1.00
n 401 1.00
n 289 1.00
n 292 1.00
n 290 1.00
n 291 1.00
n 397 1.00
n 398 1.00
n 326 1.00
n 293 1.00
n 294 1.00
n 322 1.00
n 321 1.00
n 320 1.00
n 307 1.00
n 990 1.00
n 310 1.00
n 316 1.00
n 314 1.00
n 315 1.00
n 318 1.00
n 317 1.00
n 325 1.00
n 324 1.00
n 319 1.00
n 323 1.00
n 329 1.00
n 328 1.00
n 327 1.00
n 334 1.00
n 336 1.00
n 338 1.00
n 339 1.00
n 341 1.00
n 342 1.00
n 337 1.00
n 340 1.00
n 343 1.00
n 344 1.00
n 390 1.00
n 391 1.00
n 395 1.00
n 393 1.00
n 347 1.00
n 345 1.00
n 348 1.00
n 349 1.00
n 350 1.00
n 346 1.00
n 353 1.00
n 352 1.00
n 355 1.00
n 354 1.00
n 663 1.00
n 351 1.00
n 358 1.00
n 359 1.00
n 356 1.00
n 357 1.00
n 661 1.00
n 660 1.00
n 659 1.00
n 363 1.00
n 658 1.00
n 362 1.00
n 360 1.00
n 389 1.00
n 361 1.00
n 388 1.00
n 387 1.00
n 365 1.00
n 366 1.00
n 364 1.00
n 641 1.00
n 640 1.00
n 367 1.00
n 368 1.00
n 369 1.00
n 385 1.00
n 378 1.00
n 377 1.00
n 376 1.00
n 371 1.00
n 370 1.00
n 375 1.00
n 372 1.00
n 639 1.00
n 373 1.00
n 374 1.00
n 637 1.00
n 636 1.00
n 634 1.00
n 436 1.00
n 411 1.00
n 412 1.00
n 379 1.00
n 380 1.00
n 381 1.00
n 408 1.00
n 384 1.00
n 382 1.00
n 399 1.00
n 400 1.00
n 407 1.00
n 383 1.00
n 394 1.00
n 386 1.00
n 392 1.00
n 396 1.00
n 406 1.00
n 404 1.00
n 422 1.00
n 405 1.00
n 416 1.00
n 417 1.00
n 420 1.00
n 409 1.00
n 415 1.00
n 410 1.00
n 413 1.00
n 414 1.00
n 418 1.00
n 426 1.00
n 435 1.00
n 434 1.00
n 419 1.00
n 425 1.00
n 421 1.00
n 423 1.00
n 461 1.00
n 462 1.00
n 424 1.00
n 460 1.00
n 428 1.00
n 427 1.00
n 996 1.00
n 459 1.00
n 429 1.00
n 456 1.00
n 430 1.00
n 431 1.00
n 455 1.00
n 432 1.00
n 451 1.00
n 452 1.00
n 454 1.00
n 433 1.00
n 445 1.00
n 446 1.00
n 439 1.00
n 437 1.00
n 633 1.00
n 438 1.00
n 440 1.00
n 632 1.00
n 631 1.00
n 441 1.00
n 630 1.00
n 442 1.00
n 443 1.00
n 629 1.00
n 606 1.00
n 444 1.00
n 447 1.00
n 449 1.00
n 450 1.00
n 448 1.00
n 603 1.00
n 602 1.00
n 584 1.00
n 583 1.00
n 601 1.00
n 453 1.00
n 457 1.00
n 474 1.00
n 582 1.00
n 458 1.00
n 464 1.00
n 472 1.00
n 470 1.00
n 479 1.00
n 493 1.00
n 471 1.00
n 473 1.00
n 476 1.00
n 478 1.00
n 475 1.00
n 581 1.00
n 477 1.00
n 997 1.00
n 480 1.00
n 492 1.00
n 481 1.00
n 482 1.00
n 578 1.00
n 483 1.00
n 484 1.00
n 491 1.00
n 489 1.00
n 485 1.00
n 513 1.00
n 512 1.00
n 487 1.00
n 486 1.00
n 511 1.00
n 488 1.00
n 499 1.00
n 490 1.00
n 494 1.00
n 507 1.00
n 506 1.00
n 501 1.00
n 502 1.00
n 505 1.00
n 504 1.00
n 508 1.00
n 510 1.00
n 509 1.00
n 529 1.00
n 523 1.00
n 514 1.00
n 522 1.00
n 569 1.00
n 568 1.00
n 515 1.00
n 516 1.00
n 566 1.00
n 520 1.00
n 521 1.00
n 517 1.00
n 519 1.00
n 564 1.00
n 565 1.00
n 518 1.00
n 563 1.00
n 545 1.00
n 536 1.00
n 524 1.00
n 526 1.00
n 525 1.00
n 528 1.00
n 527 1.00
n 535 1.00
n 533 1.00
n 531 1.00
n 530 1.00
n 532 1.00
n 831 1.00
n 1001 1.00
n 534 1.00
n 537 1.00
n 538 1.00
n 540 1.00
n 825 1.00
n 828 1.00
n 544 1.00
n 539 1.00
n 543 1.00
n 541 1.00
n 542 1.00
n 550 1.00
n 547 1.00
n 551 1.00
n 826 1.00
n 546 1.00
n 548 1.00
n 549 1.00
n 561 1.00
n 562 1.00
n 559 1.00
n 560 1.00
n 552 1.00
n 557 1.00
n 824 1.00
n 823 1.00
n 553 1.00
n 555 1.00
n 554 1.00
n 599 1.00
n 598 1.00
n 594 1.00
n 796 1.00
n 797 1.00
n 556 1.00
n 592 1.00
n 591 1.00
n 558 1.00
n 590 1.00
n 570 1.00
n 567 1.00
n 571 1.00
n 573 1.00
n 572 1.00
n 577 1.00
n 574 1.00
n 589 1.00
n 588 1.00
n 575 1.00
n 587 1.00
n 576 1.00
n 580 1.00
n 586 1.00
n 579 1.00
n 585 1.00
n 597 1.00
n 596 1.00
n 595 1.00
n 593 1.00
n 600 1.00
n 794 1.00
n 795 1.00
n 612 1.00
n 604 1.00
n 605 1.00
n 791 1.00
n 793 1.00
n 607 1.00
n 608 1.00
n 609 1.00
n 611 1.00
n 610 1.00
n 628 1.00
n 626 1.00
n 627 1.00
n 613 1.00
n 614 1.00
n 731 1.00
n 615 1.00
n 624 1.00
n 625 1.00
n 730 1.00
n 623 1.00
n 616 1.00
n 617 1.00
n 729 1.00
n 620 1.00
n 618 1.00
n 619 1.00
n 725 1.00
n 726 1.00
n 654 1.00
n 621 1.00
n 622 1.00
n 650 1.00
n 649 1.00
n 648 1.00
n 635 1.00
n 991 1.00
n 638 1.00
n 644 1.00
n 642 1.00
n 643 1.00
n 646 1.00
n 645 1.00
n 653 1.00
n 652 1.00
n 647 1.00
n 651 1.00
n 657 1.00
n 656 1.00
n 655 1.00
n 662 1.00
n 664 1.00
n 666 1.00
n 667 1.00
n 669 1.00
n 670 1.00
n 665 1.00
n 668 1.00
n 671 1.00
n 672 1.00
n 718 1.00
n 719 1.00
n 723 1.00
n 721 1.00
n 675 1.00
n 673 1.00
n 676 1.00
n 677 1.00
n 678 1.00
n 674 1.00
n 681 1.00
n 680 1.00
n 683 1.00
n 682 1.00
n 989 1.00
n 679 1.00
n 686 1.00
n 687 1.00
n 684 1.00
n 685 1.00
n 988 1.00
n 987 1.00
n 691 1.00
n 986 1.00
n 690 1.00
n 688 1.00
n 717 1.00
n 689 1.00
n 716 1.00
n 715 1.00
n 693 1.00
n 694 1.00
n 692 1.00
n 969 1.00
n 968 1.00
n 695 1.00
n 696 1.00
n 697 1.00
n 713 1.00
n 706 1.00
n 705 1.00
n 704 1.00
n 699 1.00
n 698 1.00
n 703 1.00
n 700 1.00
n 967 1.00
n 701 1.00
n 702 1.00
n 965 1.00
n 964 1.00
n 962 1.00
n 764 1.00
n 739 1.00
n 740 1.00
n 707 1.00
n 708 1.00
n 709 1.00
n 736 1.00
n 712 1.00
n 710 1.00
n 727 1.00
n 728 1.00
n 735 1.00
n 711 1.00
n 722 1.00
n 714 1.00
n 720 1.00
n 724 1.00
n 734 1.00
n 732 1.00
n 750 1.00
n 733 1.00
n 744 1.00
n 745 1.00
n 748 1.00
n 737 1.00
n 743 1.00
n 738 1.00
n 741 1.00
n 742 1.00
n 746 1.00
n 754 1.00
n 763 1.00
n 762 1.00
n 747 1.00
n 753 1.00
n 749 1.00
n 751 1.00
n 789 1.00
n 790 1.00
n 752 1.00
n 788 1.00
n 756 1.00
n 755 1.00
n 999 1.00
n 787 1.00
n 757 1.00
n 784 1.00
n 758 1.00
n 759 1.00
n 783 1.00
n 760 1.00
n 779 1.00
n 780 1.00
n 782 1.00
n 761 1.00
n 773 1.00
n 774 1.00
n 767 1.00
n 765 1.00
n 961 1.00
n 766 1.00
n 768 1.00
n 960 1.00
n 959 1.00
n 769 1.00
n 958 1.00
n 770 1.00
n 771 1.00
n 957 1.00
n 934 1.00
n 772 1.00
n 775 1.00
n 777 1.00
n 778 1.00
n 776 1.00
n 931 1.00
n 930 1.00
n 912 1.00
n 911 1.00
n 929 1.00
n 781 1.00
n 785 1.00
n 802 1.00
n 910 1.00
n 786 1.00
n 792 1.00
n 800 1.00
n 798 1.00
n 807 1.00
n 821 1.00
n 799 1.00
n 801 1.00
n 804 1.00
n 806 1.00
n 803 1.00
n 909 1.00
n 805 1.00
n 1000 1.00
n 808 1.00
n 820 1.00
n 809 1.00
n 810 1.00
n 906 1.00
n 811 1.00
n 812 1.00
n 819 1.00
n 817 1.00
n 813 1.00
n 841 1.00
n 840 1.00
n 815 1.00
n 814 1.00
n 839 1.00
n 816 1.00
n 827 1.00
n 818 1.00
n 822 1.00
n 835 1.00
n 834 1.00
n 829 1.00
n 830 1.00
n 833 1.00
n 832 1.00
n 836 1.00
n 838 1.00
n 837 1.00
n 857 1.00
n 851 1.00
n 842 1.00
n 850 1.00
n 897 1.00
n 896 1.00
n 843 1.00
n 844 1.00
n 894 1.00
n 848 1.00
n 849 1.00
n 845 1.00
n 847 1.00
n 892 1.00
n 893 1.00
n 846 1.00
n 891 1.00
n 873 1.00
n 864 1.00
n 852 1.00
n 854 1.00
n 853 1.00
n 856 1.00
n 855 1.00
n 863 1.00
n 861 1.00
n 859 1.00
n 858 1.00
n 860 1.00
n 862 1.00
n 865 1.00
n 866 1.00
n 868 1.00
n 872 1.00
n 867 1.00
n 871 1.00
n 869 1.00
n 870 1.00
n 879 1.00
n 878 1.00
n 875 1.00
n 874 1.00
n 876 1.00
n 877 1.00
n 889 1.00
n 890 1.00
n 887 1.00
n 888 1.00
n 880 1.00
n 885 1.00
n 928 1.00
n 881 1.00
n 883 1.00
n 882 1.00
n 927 1.00
n 926 1.00
n 922 1.00
n 884 1.00
n 920 1.00
n 919 1.00
n 886 1.00
n 918 1.00
n 898 1.00
n 895 1.00
n 899 1.00
n 901 1.00
n 900 1.00
n 905 1.00
n 902 1.00
n 917 1.00
n 916 1.00
n 903 1.00
n 915 1.00
n 904 1.00
n 908 1.00
n 914 1.00
n 907 1.00
n 913 1.00
n 925 1.00
n 924 1.00
n 923 1.00
n 921 1.00
n 942 1.00
n 940 1.00
n 932 1.00
n 933 1.00
n 935 1.00
n 936 1.00
n 937 1.00
n 939 1.00
n 938 1.00
n 956 1.00
n 954 1.00
n 955 1.00
n 941 1.00
n 943 1.00
n 952 1.00
n 953 1.00
n 951 1.00
n 945 1.00
n 948 1.00
n 947 1.00
n 983 1.00
n 982 1.00
n 949 1.00
n 950 1.00
n 978 1.00
n 977 1.00
n 976 1.00
n 963 1.00
n 992 1.00
n 966 1.00
n 972 1.00
n 970 1.00
n 971 1.00
n 974 1.00
n 973 1.00
n 981 1.00
n 980 1.00
n 975 1.00
n 979 1.00
n 985 1.00
n 984 1.00
e 0 70
e 0 1
e 0 73
e 0 74
e 0 75
e 0 138
e 0 140
e 0 168
e 0 169
e 0 175
e 1 4
e 1 2
e 1 5
e 1 70
e 2 4
e 2 3
e 2 5
e 3 4
e 3 5
e 3 6
e 4 6
e 4 69
e 4 70
e 5 6
e 5 7
e 6 8
e 6 7
e 6 10
e 6 11
e 6 69
e 7 13
e 7 14
e 7 8
e 8 13
e 8 9
e 8 10
e 9 13
e 9 12
e 9 10
e 10 12
e 10 15
e 10 16
e 10 11
e 11 16
e 11 62
e 11 63
e 11 69
e 11 67
e 11 65
e 12 14
e 12 13
e 12 15
e 13 14
e 14 19
e 14 17
e 14 15
e 14 16
e 15 16
e 16 17
e 16 20
e 16 21
e 16 22
e 16 62
e 17 19
e 17 18
e 17 20
e 18 19
e 18 20
e 18 25
e 18 24
e 19 25
e 19 27
e 19 26
e 19 335
e 20 21
e 20 24
e 21 24
e 21 22
e 22 24
e 22 23
e 22 62
e 23 24
e 23 30
e 23 31
e 23 62
e 24 25
e 24 30
e 25 26
e 25 30
e 25 28
e 25 29
e 26 27
e 26 28
e 27 333
e 27 332
e 27 335
e 27 331
e 27 28
e 28 29
e 28 331
e 28 35
e 28 330
e 29 30
e 29 34
e 29 35
e 30 31
e 30 32
e 30 34
e 31 62
e 31 61
e 31 32
e 32 61
e 32 34
e 32 33
e 32 60
e 33 34
e 33 60
e 33 59
e 33 37
e 33 38
e 34 35
e 34 36
e 34 37
e 35 330
e 35 36
e 35 313
e 36 37
e 36 313
e 36 312
e 37 38
e 37 39
e 37 312
e 37 40
e 37 41
e 38 59
e 38 39
e 39 59
e 39 57
e 39 50
e 39 49
e 39 40
e 40 49
e 40 41
e 40 48
e 41 312
e 41 43
e 41 42
e 41 48
e 42 43
e 42 48
e 42 47
e 43 312
e 43 44
e 43 47
e 44 312
e 44 311
e 44 47
e 44 45
e 45 47
e 45 46
e 45 311
e 45 309
e 45 308
e 45 306
e 45 108
e 46 47
e 46 83
e 46 84
e 46 108
e 47 48
e 47 83
e 48 49
e 48 50
e 48 51
e 48 83
e 49 50
e 50 57
e 50 52
e 50 51
e 51 53
e 51 52
e 51 80
e 51 83
e 52 57
e 52 56
e 52 53
e 53 56
e 53 54
e 53 71
e 53 72
e 53 80
e 53 79
e 54 56
e 54 55
e 54 71
e 55 71
e 55 66
e 55 57
e 55 56
e 56 57
e 57 59
e 57 58
e 57 66
e 58 65
e 58 64
e 58 59
e 58 66
e 59 64
e 59 60
e 60 63
e 60 61
e 60 64
e 61 62
e 61 63
e 62 63
e 63 65
e 63 64
e 64 65
e 65 67
e 65 66
e 66 67
e 66 71
e 67 69
e 67 68
e 67 71
e 68 69
e 68 71
e 68 70
e 69 70
e 70 71
e 70 72
e 70 73
e 71 72
e 72 73
e 72 79
e 73 79
e 73 78
e 73 74
e 74 78
e 74 76
e 74 75
e 75 76
e 75 94
e 75 135
e 75 138
e 76 78
e 76 77
e 76 88
e 76 89
e 76 92
e 76 94
e 77 78
e 77 81
e 77 87
e 77 88
e 78 81
e 78 79
e 79 80
e 79 81
e 80 83
e 80 82
e 80 81
e 81 82
e 81 87
e 82 83
e 82 87
e 82 84
e 82 85
e 83 84
e 84 85
e 84 86
e 84 108
e 85 87
e 85 88
e 85 86
e 86 88
e 86 89
e 86 90
e 86 98
e 86 108
e 86 107
e 86 106
e 87 88
e 88 89
e 89 92
e 89 90
e 89 91
e 90 91
e 90 97
e 90 98
e 91 92
e 91 93
e 91 97
e 92 93
e 92 94
e 93 97
e 93 95
e 93 94
e 94 95
e 94 133
e 94 134
e 94 135
e 95 97
e 95 96
e 95 133
e 96 97
e 96 98
e 96 133
e 96 132
e 96 100
e 96 99
e 97 98
e 98 106
e 98 993
e 98 100
e 99 100
e 99 132
e 99 131
e 99 101
e 99 128
e 100 993
e 100 101
e 101 993
e 101 102
e 101 128
e 101 103
e 101 127
e 102 104
e 102 993
e 102 103
e 103 104
e 103 123
e 103 127
e 103 124
e 103 126
e 104 105
e 104 993
e 104 123
e 105 106
e 105 117
e 105 993
e 105 118
e 105 123
e 106 107
e 106 111
e 106 993
e 106 117
e 107 109
e 107 108
e 107 111
e 108 306
e 108 305
e 108 109
e 109 305
e 109 110
e 109 112
e 109 111
e 110 305
e 110 304
e 110 303
e 110 112
e 111 112
e 111 113
e 111 117
e 112 303
e 112 302
e 112 113
e 113 302
e 113 114
e 113 117
e 114 302
e 114 117
e 114 115
e 114 301
e 114 278
e 115 117
e 115 116
e 115 278
e 116 117
e 116 118
e 116 278
e 116 119
e 116 121
e 117 118
e 118 123
e 118 122
e 118 121
e 119 278
e 119 121
e 119 120
e 119 275
e 119 274
e 120 121
e 120 274
e 120 256
e 120 255
e 120 273
e 121 122
e 121 125
e 121 255
e 122 123
e 122 124
e 122 125
e 123 124
e 124 126
e 124 125
e 125 126
e 125 127
e 125 129
e 125 146
e 125 255
e 125 254
e 126 127
e 127 128
e 127 129
e 128 131
e 128 129
e 129 131
e 129 130
e 129 146
e 130 131
e 130 136
e 130 137
e 130 138
e 130 146
e 130 144
e 131 132
e 131 134
e 131 136
e 132 133
e 132 134
e 133 134
e 134 135
e 134 136
e 135 136
e 135 137
e 135 138
e 136 137
e 137 138
e 138 144
e 138 139
e 138 140
e 139 144
e 139 141
e 139 140
e 140 141
e 140 168
e 141 144
e 141 142
e 141 151
e 141 168
e 141 165
e 142 143
e 142 145
e 142 144
e 142 148
e 142 150
e 142 151
e 143 147
e 143 145
e 143 148
e 144 146
e 144 145
e 145 146
e 145 147
e 146 147
e 146 254
e 147 148
e 147 254
e 147 253
e 148 150
e 148 149
e 148 253
e 149 150
e 149 253
e 149 994
e 149 152
e 150 151
e 150 152
e 151 152
e 151 164
e 151 165
e 152 994
e 152 164
e 152 153
e 153 164
e 153 154
e 153 994
e 153 250
e 153 155
e 153 156
e 154 164
e 154 155
e 154 163
e 155 163
e 155 156
e 155 161
e 156 161
e 156 157
e 156 250
e 156 185
e 156 184
e 157 161
e 157 159
e 157 158
e 157 184
e 158 159
e 158 184
e 158 183
e 159 161
e 159 160
e 159 171
e 159 183
e 160 161
e 160 162
e 160 166
e 160 167
e 160 170
e 160 171
e 161 163
e 161 162
e 162 166
e 162 163
e 163 164
e 163 165
e 163 166
e 164 165
e 165 168
e 165 167
e 165 166
e 166 167
e 167 168
e 167 170
e 168 170
e 168 169
e 169 170
e 169 171
e 169 172
e 169 175
e 170 171
e 171 183
e 171 172
e 171 179
e 171 178
e 172 178
e 172 173
e 172 174
e 172 175
e 173 178
e 173 177
e 173 174
e 174 177
e 174 176
e 174 175
e 175 176
e 175 995
e 176 177
e 176 180
e 176 995
e 177 178
e 177 179
e 177 180
e 178 179
e 179 183
e 179 180
e 180 183
e 180 182
e 180 181
e 180 995
e 181 182
e 181 201
e 181 995
e 182 183
e 182 195
e 182 201
e 183 184
e 183 186
e 183 194
e 183 195
e 184 185
e 184 186
e 185 241
e 185 250
e 185 240
e 185 187
e 185 186
e 186 187
e 186 194
e 187 188
e 187 238
e 187 240
e 187 192
e 187 193
e 187 194
e 188 189
e 188 238
e 188 191
e 188 192
e 189 236
e 189 237
e 189 238
e 189 190
e 189 191
e 190 236
e 190 235
e 190 217
e 190 191
e 190 192
e 190 208
e 191 192
e 192 193
e 192 196
e 192 198
e 192 208
e 193 194
e 193 196
e 194 196
e 194 195
e 195 196
e 195 201
e 196 198
e 196 197
e 196 200
e 196 201
e 197 198
e 197 200
e 197 199
e 198 208
e 198 207
e 198 199
e 199 207
e 199 200
e 199 205
e 199 203
e 200 201
e 200 203
e 200 202
e 201 995
e 201 202
e 202 203
e 202 995
e 202 204
e 202 503
e 202 998
e 203 205
e 203 204
e 204 206
e 204 205
e 204 209
e 204 503
e 205 207
e 205 206
e 206 208
e 206 207
e 206 209
e 207 208
e 208 217
e 208 210
e 208 209
e 209 210
e 209 212
e 209 497
e 209 500
e 209 503
e 210 216
e 210 211
e 210 212
e 210 217
e 211 216
e 211 215
e 211 212
e 212 213
e 212 214
e 212 215
e 212 497
e 213 222
e 213 219
e 213 223
e 213 214
e 213 498
e 213 497
e 214 219
e 214 218
e 214 215
e 215 218
e 215 216
e 216 218
e 216 217
e 217 235
e 217 218
e 218 219
e 218 220
e 218 235
e 219 220
e 219 221
e 219 222
e 220 221
e 220 233
e 220 234
e 220 235
e 221 231
e 221 222
e 221 232
e 221 233
e 222 223
e 222 224
e 222 229
e 222 231
e 223 224
e 223 496
e 223 495
e 223 498
e 224 229
e 224 225
e 224 496
e 225 227
e 225 226
e 225 229
e 225 496
e 226 271
e 226 270
e 226 266
e 226 227
e 226 468
e 226 469
e 226 496
e 227 228
e 227 266
e 227 229
e 228 266
e 228 264
e 228 263
e 228 230
e 228 229
e 229 230
e 229 231
e 230 263
e 230 262
e 230 231
e 230 242
e 230 232
e 231 232
e 232 242
e 232 233
e 232 234
e 232 241
e 233 234
e 234 241
e 234 239
e 234 237
e 234 236
e 234 235
e 235 236
e 236 237
e 237 239
e 237 238
e 238 239
e 238 240
e 239 240
e 239 241
e 240 241
e 241 250
e 241 242
e 242 250
e 242 243
e 242 262
e 243 245
e 243 244
e 243 262
e 243 249
e 243 250
e 244 245
e 244 246
e 244 249
e 245 261
e 245 260
e 245 246
e 245 262
e 246 249
e 246 247
e 246 260
e 247 259
e 247 248
e 247 249
e 247 260
e 248 252
e 248 258
e 248 259
e 248 249
e 248 251
e 249 251
e 249 250
e 250 251
e 250 994
e 251 994
e 251 252
e 252 258
e 252 253
e 252 994
e 253 257
e 253 254
e 253 258
e 253 994
e 254 255
e 254 257
e 255 256
e 255 257
e 256 257
e 256 273
e 257 273
e 257 269
e 257 258
e 258 269
e 258 259
e 259 269
e 259 268
e 259 260
e 260 268
e 260 267
e 260 261
e 261 267
e 261 265
e 261 264
e 261 262
e 262 264
e 262 263
e 263 264
e 264 266
e 264 265
e 265 266
e 265 267
e 266 267
e 266 270
e 267 268
e 267 270
e 268 269
e 268 270
e 269 273
e 269 271
e 269 270
e 270 271
e 271 273
e 271 272
e 271 468
e 272 466
e 272 273
e 272 467
e 272 468
e 273 274
e 273 466
e 274 466
e 274 275
e 275 284
e 275 276
e 275 277
e 275 463
e 275 465
e 275 466
e 275 278
e 276 279
e 276 280
e 276 284
e 276 277
e 277 278
e 277 279
e 278 279
e 278 281
e 278 301
e 279 281
e 279 280
e 280 283
e 280 281
e 280 284
e 281 283
e 281 282
e 281 300
e 281 301
e 282 298
e 282 299
e 282 300
e 282 283
e 283 284
e 283 298
e 284 298
e 284 285
e 284 286
e 284 403
e 284 463
e 285 287
e 285 286
e 285 296
e 285 297
e 285 298
e 286 287
e 286 402
e 286 403
e 287 295
e 287 288
e 287 401
e 287 402
e 287 296
e 288 295
e 288 289
e 288 401
e 289 292
e 289 290
e 289 295
e 289 401
e 290 292
e 290 291
e 290 401
e 291 397
e 291 398
e 291 326
e 291 293
e 291 292
e 291 401
e 292 293
e 292 294
e 292 295
e 293 326
e 293 322
e 293 321
e 293 320
e 293 294
e 294 295
e 294 320
e 294 308
e 294 307
e 295 307
e 295 296
e 296 307
e 296 990
e 296 297
e 297 990
e 297 299
e 297 298
e 298 299
e 299 990
e 299 304
e 299 300
e 300 304
e 300 303
e 300 301
e 301 303
e 301 302
e 302 303
e 303 304
e 304 990
e 304 305
e 305 307
e 305 306
e 305 990
e 306 308
e 306 307
e 307 308
e 307 990
e 308 320
e 308 309
e 309 311
e 309 310
e 309 320
e 310 311
e 310 316
e 310 320
e 311 316
e 311 312
e 312 314
e 312 313
e 312 315
e 312 318
e 312 317
e 312 316
e 313 330
e 313 325
e 313 314
e 314 325
e 314 324
e 314 315
e 315 324
e 315 318
e 316 317
e 316 319
e 316 320
e 317 319
e 317 318
e 318 324
e 318 323
e 318 322
e 318 319
e 319 322
e 319 321
e 319 320
e 320 321
e 321 322
e 322 326
e 322 323
e 323 326
e 323 325
e 323 324
e 324 325
e 325 330
e 325 329
e 325 328
e 325 326
e 326 328
e 326 327
e 326 397
e 327 332
e 327 333
e 327 328
e 327 397
e 328 331
e 328 332
e 328 329
e 329 330
e 329 331
e 330 331
e 331 332
e 332 333
e 333 335
e 333 334
e 333 397
e 334 336
e 334 335
e 334 338
e 334 339
e 334 397
e 335 341
e 335 342
e 335 336
e 336 341
e 336 337
e 336 338
e 337 341
e 337 340
e 337 338
e 338 340
e 338 343
e 338 344
e 338 339
e 339 344
e 339 390
e 339 391
e 339 397
e 339 395
e 339 393
e 340 342
e 340 341
e 340 343
e 341 342
e 342 347
e 342 345
e 342 343
e 342 344
e 343 344
e 344 345
e 344 348
e 344 349
e 344 350
e 344 390
e 345 347
e 345 346
e 345 348
e 346 347
e 346 348
e 346 353
e 346 352
e 347 353
e 347 355
e 347 354
e 347 663
e 348 349
e 348 352
e 349 352
e 349 350
e 350 352
e 350 351
e 350 390
e 351 352
e 351 358
e 351 359
e 351 390
e 352 353
e 352 358
e 353 354
e 353 358
e 353 356
e 353 357
e 354 355
e 354 356
e 355 661
e 355 660
e 355 663
e 355 659
e 355 356
e 356 357
e 356 659
e 356 363
e 356 658
e 357 358
e 357 362
e 357 363
e 358 359
e 358 360
e 358 362
e 359 390
e 359 389
e 359 360
e 360 389
e 360 362
e 360 361
e 360 388
e 361 362
e 361 388
e 361 387
e 361 365
e 361 366
e 362 363
e 362 364
e 362 365
e 363 658
e 363 364
e 363 641
e 364 365
e 364 641
e 364 640
e 365 366
e 365 367
e 365 640
e 365 368
e 365 369
e 366 387
e 366 367
e 367 387
e 367 385
e 367 378
e 367 377
e 367 368
e 368 377
e 368 369
e 368 376
e 369 640
e 369 371
e 369 370
e 369 376
e 370 371
e 370 376
e 370 375
e 371 640
e 371 372
e 371 375
e 372 640
e 372 639
e 372 375
e 372 373
e 373 375
e 373 374
e 373 639
e 373 637
e 373 636
e 373 634
e 373 436
e 374 375
e 374 411
e 374 412
e 374 436
e 375 376
e 375 411
e 376 377
e 376 378
e 376 379
e 376 411
e 377 378
e 378 385
e 378 380
e 378 379
e 379 381
e 379 380
e 379 408
e 379 411
e 380 385
e 380 384
e 380 381
e 381 384
e 381 382
e 381 399
e 381 400
e 381 408
e 381 407
e 382 384
e 382 383
e 382 399
e 383 399
e 383 394
e 383 385
e 383 384
e 384 385
e 385 387
e 385 386
e 385 394
e 386 393
e 386 392
e 386 387
e 386 394
e 387 392
e 387 388
e 388 391
e 388 389
e 388 392
e 389 390
e 389 391
e 390 391
e 391 393
e 391 392
e 392 393
e 393 395
e 393 394
e 394 395
e 394 399
e 395 397
e 395 396
e 395 399
e 396 397
e 396 399
e 396 398
e 397 398
e 398 399
e 398 400
e 398 401
e 399 400
e 400 401
e 400 407
e 401 407
e 401 406
e 401 402
e 402 406
e 402 404
e 402 403
e 403 404
e 403 422
e 403 463
e 404 406
e 404 405
e 404 416
e 404 417
e 404 420
e 404 422
e 405 406
e 405 409
e 405 415
e 405 416
e 406 409
e 406 407
e 407 408
e 407 409
e 408 411
e 408 410
e 408 409
e 409 410
e 409 415
e 410 411
e 410 415
e 410 412
e 410 413
e 411 412
e 412 413
e 412 414
e 412 436
e 413 415
e 413 416
e 413 414
e 414 416
e 414 417
e 414 418
e 414 426
e 414 436
e 414 435
e 414 434
e 415 416
e 416 417
e 417 420
e 417 418
e 417 419
e 418 419
e 418 425
e 418 426
e 419 420
e 419 421
e 419 425
e 420 421
e 420 422
e 421 425
e 421 423
e 421 422
e 422 423
e 422 461
e 422 462
e 422 463
e 423 425
e 423 424
e 423 461
e 424 425
e 424 426
e 424 461
e 424 460
e 424 428
e 424 427
e 425 426
e 426 434
e 426 996
e 426 428
e 427 428
e 427 460
e 427 459
e 427 429
e 427 456
e 428 996
e 428 429
e 429 996
e 429 430
e 429 456
e 429 431
e 429 455
e 430 432
e 430 996
e 430 431
e 431 432
e 431 451
e 431 455
e 431 452
e 431 454
e 432 433
e 432 996
e 432 451
e 433 434
e 433 445
e 433 996
e 433 446
e 433 451
e 434 435
e 434 439
e 434 996
e 434 445
e 435 437
e 435 436
e 435 439
e 436 634
e 436 633
e 436 437
e 437 633
e 437 438
e 437 440
e 437 439
e 438 633
e 438 632
e 438 631
e 438 440
e 439 440
e 439 441
e 439 445
e 440 631
e 440 630
e 440 441
e 441 630
e 441 442
e 441 445
e 442 630
e 442 445
e 442 443
e 442 629
e 442 606
e 443 445
e 443 444
e 443 606
e 444 445
e 444 446
e 444 606
e 444 447
e 444 449
e 445 446
e 446 451
e 446 450
e 446 449
e 447 606
e 447 449
e 447 448
e 447 603
e 447 602
e 448 449
e 448 602
e 448 584
e 448 583
e 448 601
e 449 450
e 449 453
e 449 583
e 450 451
e 450 452
e 450 453
e 451 452
e 452 454
e 452 453
e 453 454
e 453 455
e 453 457
e 453 474
e 453 583
e 453 582
e 454 455
e 455 456
e 455 457
e 456 459
e 456 457
e 457 459
e 457 458
e 457 474
e 458 459
e 458 464
e 458 465
e 458 466
e 458 474
e 458 472
e 459 460
e 459 462
e 459 464
e 460 461
e 460 462
e 461 462
e 462 463
e 462 464
e 463 464
e 463 465
e 464 465
e 465 466
e 466 472
e 466 467
e 467 472
e 467 469
e 467 468
e 468 469
e 469 472
e 469 470
e 469 479
e 469 496
e 469 493
e 470 471
e 470 473
e 470 472
e 470 476
e 470 478
e 470 479
e 471 475
e 471 473
e 471 476
e 472 474
e 472 473
e 473 474
e 473 475
e 474 475
e 474 582
e 475 476
e 475 582
e 475 581
e 476 478
e 476 477
e 476 581
e 477 478
e 477 581
e 477 997
e 477 480
e 478 479
e 478 480
e 479 480
e 479 492
e 479 493
e 480 997
e 480 492
e 480 481
e 481 492
e 481 482
e 481 997
e 481 578
e 481 483
e 481 484
e 482 492
e 482 483
e 482 491
e 483 491
e 483 484
e 483 489
e 484 489
e 484 485
e 484 578
e 484 513
e 484 512
e 485 489
e 485 487
e 485 486
e 485 512
e 486 487
e 486 512
e 486 511
e 487 489
e 487 488
e 487 499
e 487 511
e 488 489
e 488 490
e 488 494
e 488 495
e 488 498
e 488 499
e 489 491
e 489 490
e 490 494
e 490 491
e 491 492
e 491 493
e 491 494
e 492 493
e 493 496
e 493 495
e 493 494
e 494 495
e 495 496
e 495 498
e 497 498
e 497 499
e 497 500
e 498 499
e 499 511
e 499 500
e 499 507
e 499 506
e 500 506
e 500 501
e 500 502
e 500 503
e 501 506
e 501 505
e 501 502
e 502 505
e 502 504
e 502 503
e 503 504
e 503 998
e 504 505
e 504 508
e 504 998
e 505 506
e 505 507
e 505 508
e 506 507
e 507 511
e 507 508
e 508 511
e 508 510
e 508 509
e 508 998
e 509 510
e 509 529
e 509 998
e 510 511
e 510 523
e 510 529
e 511 512
e 511 514
e 511 522
e 511 523
e 512 513
e 512 514
e 513 569
e 513 578
e 513 568
e 513 515
e 513 514
e 514 515
e 514 522
e 515 516
e 515 566
e 515 568
e 515 520
e 515 521
e 515 522
e 516 517
e 516 566
e 516 519
e 516 520
e 517 564
e 517 565
e 517 566
e 517 518
e 517 519
e 518 564
e 518 563
e 518 545
e 518 519
e 518 520
e 518 536
e 519 520
e 520 521
e 520 524
e 520 526
e 520 536
e 521 522
e 521 524
e 522 524
e 522 523
e 523 524
e 523 529
e 524 526
e 524 525
e 524 528
e 524 529
e 525 526
e 525 528
e 525 527
e 526 536
e 526 535
e 526 527
e 527 535
e 527 528
e 527 533
e 527 531
e 528 529
e 528 531
e 528 530
e 529 998
e 529 530
e 530 531
e 530 998
e 530 532
e 530 831
e 530 1001
e 531 533
e 531 532
e 532 534
e 532 533
e 532 537
e 532 831
e 533 535
e 533 534
e 534 536
e 534 535
e 534 537
e 535 536
e 536 545
e 536 538
e 536 537
e 537 538
e 537 540
e 537 825
e 537 828
e 537 831
e 538 544
e 538 539
e 538 540
e 538 545
e 539 544
e 539 543
e 539 540
e 540 541
e 540 542
e 540 543
e 540 825
e 541 550
e 541 547
e 541 551
e 541 542
e 541 826
e 541 825
e 542 547
e 542 546
e 542 543
e 543 546
e 543 544
e 544 546
e 544 545
e 545 563
e 545 546
e 546 547
e 546 548
e 546 563
e 547 548
e 547 549
e 547 550
e 548 549
e 548 561
e 548 562
e 548 563
e 549 559
e 549 550
e 549 560
e 549 561
e 550 551
e 550 552
e 550 557
e 550 559
e 551 552
e 551 824
e 551 823
e 551 826
e 552 557
e 552 553
e 552 824
e 553 555
e 553 554
e 553 557
e 553 824
e 554 599
e 554 598
e 554 594
e 554 555
e 554 796
e 554 797
e 554 824
e 555 556
e 555 594
e 555 557
e 556 594
e 556 592
e 556 591
e 556 558
e 556 557
e 557 558
e 557 559
e 558 591
e 558 590
e 558 559
e 558 570
e 558 560
e 559 560
e 560 570
e 560 561
e 560 562
e 560 569
e 561 562
e 562 569
e 562 567
e 562 565
e 562 564
e 562 563
e 563 564
e 564 565
e 565 567
e 565 566
e 566 567
e 566 568
e 567 568
e 567 569
e 568 569
e 569 578
e 569 570
e 570 578
e 570 571
e 570 590
e 571 573
e 571 572
e 571 590
e 571 577
e 571 578
e 572 573
e 572 574
e 572 577
e 573 589
e 573 588
e 573 574
e 573 590
e 574 577
e 574 575
e 574 588
e 575 587
e 575 576
e 575 577
e 575 588
e 576 580
e 576 586
e 576 587
e 576 577
e 576 579
e 577 579
e 577 578
e 578 579
e 578 997
e 579 997
e 579 580
e 580 586
e 580 581
e 580 997
e 581 585
e 581 582
e 581 586
e 581 997
e 582 583
e 582 585
e 583 584
e 583 585
e 584 585
e 584 601
e 585 601
e 585 597
e 585 586
e 586 597
e 586 587
e 587 597
e 587 596
e 587 588
e 588 596
e 588 595
e 588 589
e 589 595
e 589 593
e 589 592
e 589 590
e 590 592
e 590 591
e 591 592
e 592 594
e 592 593
e 593 594
e 593 595
e 594 595
e 594 598
e 595 596
e 595 598
e 596 597
e 596 598
e 597 601
e 597 599
e 597 598
e 598 599
e 599 601
e 599 600
e 599 796
e 600 794
e 600 601
e 600 795
e 600 796
e 601 602
e 601 794
e 602 794
e 602 603
e 603 612
e 603 604
e 603 605
e 603 791
e 603 793
e 603 794
e 603 606
e 604 607
e 604 608
e 604 612
e 604 605
e 605 606
e 605 607
e 606 607
e 606 609
e 606 629
e 607 609
e 607 608
e 608 611
e 608 609
e 608 612
e 609 611
e 609 610
e 609 628
e 609 629
e 610 626
e 610 627
e 610 628
e 610 611
e 611 612
e 611 626
e 612 626
e 612 613
e 612 614
e 612 731
e 612 791
e 613 615
e 613 614
e 613 624
e 613 625
e 613 626
e 614 615
e 614 730
e 614 731
e 615 623
e 615 616
e 615 730
e 615 624
e 616 623
e 616 617
e 616 729
e 616 730
e 617 620
e 617 618
e 617 623
e 617 729
e 618 620
e 618 619
e 618 729
e 619 725
e 619 726
e 619 654
e 619 621
e 619 620
e 619 729
e 620 621
e 620 622
e 620 623
e 621 654
e 621 650
e 621 649
e 621 648
e 621 622
e 622 623
e 622 648
e 622 636
e 622 635
e 623 635
e 623 624
e 624 635
e 624 991
e 624 625
e 625 991
e 625 627
e 625 626
e 626 627
e 627 991
e 627 632
e 627 628
e 628 632
e 628 631
e 628 629
e 629 631
e 629 630
e 630 631
e 631 632
e 632 991
e 632 633
e 633 635
e 633 634
e 633 991
e 634 636
e 634 635
e 635 636
e 635 991
e 636 648
e 636 637
e 637 639
e 637 638
e 637 648
e 638 639
e 638 644
e 638 648
e 639 644
e 639 640
e 640 642
e 640 641
e 640 643
e 640 646
e 640 645
e 640 644
e 641 658
e 641 653
e 641 642
e 642 653
e 642 652
e 642 643
e 643 652
e 643 646
e 644 645
e 644 647
e 644 648
e 645 647
e 645 646
e 646 652
e 646 651
e 646 650
e 646 647
e 647 650
e 647 649
e 647 648
e 648 649
e 649 650
e 650 654
e 650 651
e 651 654
e 651 653
e 651 652
e 652 653
e 653 658
e 653 657
e 653 656
e 653 654
e 654 656
e 654 655
e 654 725
e 655 660
e 655 661
e 655 656
e 655 725
e 656 659
e 656 660
e 656 657
e 657 658
e 657 659
e 658 659
e 659 660
e 660 661
e 661 663
e 661 662
e 661 725
e 662 664
e 662 663
e 662 666
e 662 667
e 662 725
e 663 669
e 663 670
e 663 664
e 664 669
e 664 665
e 664 666
e 665 669
e 665 668
e 665 666
e 666 668
e 666 671
e 666 672
e 666 667
e 667 672
e 667 718
e 667 719
e 667 725
e 667 723
e 667 721
e 668 670
e 668 669
e 668 671
e 669 670
e 670 675
e 670 673
e 670 671
e 670 672
e 671 672
e 672 673
e 672 676
e 672 677
e 672 678
e 672 718
e 673 675
e 673 674
e 673 676
e 674 675
e 674 676
e 674 681
e 674 680
e 675 681
e 675 683
e 675 682
e 675 989
e 676 677
e 676 680
e 677 680
e 677 678
e 678 680
e 678 679
e 678 718
e 679 680
e 679 686
e 679 687
e 679 718
e 680 681
e 680 686
e 681 682
e 681 686
e 681 684
e 681 685
e 682 683
e 682 684
e 683 989
e 683 988
e 683 987
e 683 684
e 684 685
e 684 987
e 684 691
e 684 986
e 685 686
e 685 690
e 685 691
e 686 687
e 686 688
e 686 690
e 687 718
e 687 717
e 687 688
e 688 717
e 688 690
e 688 689
e 688 716
e 689 690
e 689 716
e 689 715
e 689 693
e 689 694
e 690 691
e 690 692
e 690 693
e 691 986
e 691 692
e 691 969
e 692 693
e 692 969
e 692 968
e 693 694
e 693 695
e 693 968
e 693 696
e 693 697
e 694 715
e 694 695
e 695 715
e 695 713
e 695 706
e 695 705
e 695 696
e 696 705
e 696 697
e 696 704
e 697 968
e 697 699
e 697 698
e 697 704
e 698 699
e 698 704
e 698 703
e 699 968
e 699 700
e 699 703
e 700 968
e 700 967
e 700 703
e 700 701
e 701 703
e 701 702
e 701 967
e 701 965
e 701 964
e 701 962
e 701 764
e 702 703
e 702 739
e 702 740
e 702 764
e 703 704
e 703 739
e 704 705
e 704 706
e 704 707
e 704 739
e 705 706
e 706 713
e 706 708
e 706 707
e 707 709
e 707 708
e 707 736
e 707 739
e 708 713
e 708 712
e 708 709
e 709 712
e 709 710
e 709 727
e 709 728
e 709 736
e 709 735
e 710 712
e 710 711
e 710 727
e 711 727
e 711 722
e 711 713
e 711 712
e 712 713
e 713 715
e 713 714
e 713 722
e 714 721
e 714 720
e 714 715
e 714 722
e 715 720
e 715 716
e 716 719
e 716 717
e 716 720
e 717 718
e 717 719
e 718 719
e 719 721
e 719 720
e 720 721
e 721 723
e 721 722
e 722 723
e 722 727
e 723 725
e 723 724
e 723 727
e 724 725
e 724 727
e 724 726
e 725 726
e 726 727
e 726 728
e 726 729
e 727 728
e 728 729
e 728 735
e 729 735
e 729 734
e 729 730
e 730 734
e 730 732
e 730 731
e 731 732
e 731 750
e 731 791
e 732 734
e 732 733
e 732 744
e 732 745
e 732 748
e 732 750
e 733 734
e 733 737
e 733 743
e 733 744
e 734 737
e 734 735
e 735 736
e 735 737
e 736 739
e 736 738
e 736 737
e 737 738
e 737 743
e 738 739
e 738 743
e 738 740
e 738 741
e 739 740
e 740 741
e 740 742
e 740 764
e 741 743
e 741 744
e 741 742
e 742 744
e 742 745
e 742 746
e 742 754
e 742 764
e 742 763
e 742 762
e 743 744
e 744 745
e 745 748
e 745 746
e 745 747
e 746 747
e 746 753
e 746 754
e 747 748
e 747 749
e 747 753
e 748 749
e 748 750
e 749 753
e 749 751
e 749 750
e 750 751
e 750 789
e 750 790
e 750 791
e 751 753
e 751 752
e 751 789
e 752 753
e 752 754
e 752 789
e 752 788
e 752 756
e 752 755
e 753 754
e 754 762
e 754 999
e 754 756
e 755 756
e 755 788
e 755 787
e 755 757
e 755 784
e 756 999
e 756 757
e 757 999
e 757 758
e 757 784
e 757 759
e 757 783
e 758 760
e 758 999
e 758 759
e 759 760
e 759 779
e 759 783
e 759 780
e 759 782
e 760 761
e 760 999
e 760 779
e 761 762
e 761 773
e 761 999
e 761 774
e 761 779
e 762 763
e 762 767
e 762 999
e 762 773
e 763 765
e 763 764
e 763 767
e 764 962
e 764 961
e 764 765
e 765 961
e 765 766
e 765 768
e 765 767
e 766 961
e 766 960
e 766 959
e 766 768
e 767 768
e 767 769
e 767 773
e 768 959
e 768 958
e 768 769
e 769 958
e 769 770
e 769 773
e 770 958
e 770 773
e 770 771
e 770 957
e 770 934
e 771 773
e 771 772
e 771 934
e 772 773
e 772 774
e 772 934
e 772 775
e 772 777
e 773 774
e 774 779
e 774 778
e 774 777
e 775 934
e 775 777
e 775 776
e 775 931
e 775 930
e 776 777
e 776 930
e 776 912
e 776 911
e 776 929
e 777 778
e 777 781
e 777 911
e 778 779
e 778 780
e 778 781
e 779 780
e 780 782
e 780 781
e 781 782
e 781 783
e 781 785
e 781 802
e 781 911
e 781 910
e 782 783
e 783 784
e 783 785
e 784 787
e 784 785
e 785 787
e 785 786
e 785 802
e 786 787
e 786 792
e 786 793
e 786 794
e 786 802
e 786 800
e 787 788
e 787 790
e 787 792
e 788 789
e 788 790
e 789 790
e 790 791
e 790 792
e 791 792
e 791 793
e 792 793
e 793 794
e 794 800
e 794 795
e 795 800
e 795 797
e 795 796
e 796 797
e 797 800
e 797 798
e 797 807
e 797 824
e 797 821
e 798 799
e 798 801
e 798 800
e 798 804
e 798 806
e 798 807
e 799 803
e 799 801
e 799 804
e 800 802
e 800 801
e 801 802
e 801 803
e 802 803
e 802 910
e 803 804
e 803 910
e 803 909
e 804 806
e 804 805
e 804 909
e 805 806
e 805 909
e 805 1000
e 805 808
e 806 807
e 806 808
e 807 808
e 807 820
e 807 821
e 808 1000
e 808 820
e 808 809
e 809 820
e 809 810
e 809 1000
e 809 906
e 809 811
e 809 812
e 810 820
e 810 811
e 810 819
e 811 819
e 811 812
e 811 817
e 812 817
e 812 813
e 812 906
e 812 841
e 812 840
e 813 817
e 813 815
e 813 814
e 813 840
e 814 815
e 814 840
e 814 839
e 815 817
e 815 816
e 815 827
e 815 839
e 816 817
e 816 818
e 816 822
e 816 823
e 816 826
e 816 827
e 817 819
e 817 818
e 818 822
e 818 819
e 819 820
e 819 821
e 819 822
e 820 821
e 821 824
e 821 823
e 821 822
e 822 823
e 823 824
e 823 826
e 825 826
e 825 827
e 825 828
e 826 827
e 827 839
e 827 828
e 827 835
e 827 834
e 828 834
e 828 829
e 828 830
e 828 831
e 829 834
e 829 833
e 829 830
e 830 833
e 830 832
e 830 831
e 831 832
e 831 1001
e 832 833
e 832 836
e 832 1001
e 833 834
e 833 835
e 833 836
e 834 835
e 835 839
e 835 836
e 836 839
e 836 838
e 836 837
e 836 1001
e 837 838
e 837 857
e 837 1001
e 838 839
e 838 851
e 838 857
e 839 840
e 839 842
e 839 850
e 839 851
e 840 841
e 840 842
e 841 897
e 841 906
e 841 896
e 841 843
e 841 842
e 842 843
e 842 850
e 843 844
e 843 894
e 843 896
e 843 848
e 843 849
e 843 850
e 844 845
e 844 894
e 844 847
e 844 848
e 845 892
e 845 893
e 845 894
e 845 846
e 845 847
e 846 892
e 846 891
e 846 873
e 846 847
e 846 848
e 846 864
e 847 848
e 848 849
e 848 852
e 848 854
e 848 864
e 849 850
e 849 852
e 850 852
e 850 851
e 851 852
e 851 857
e 852 854
e 852 853
e 852 856
e 852 857
e 853 854
e 853 856
e 853 855
e 854 864
e 854 863
e 854 855
e 855 863
e 855 856
e 855 861
e 855 859
e 856 857
e 856 859
e 856 858
e 857 1001
e 857 858
e 858 859
e 858 1001
e 858 860
e 859 861
e 859 860
e 860 862
e 860 861
e 860 865
e 861 863
e 861 862
e 862 864
e 862 863
e 862 865
e 863 864
e 864 873
e 864 866
e 864 865
e 865 866
e 865 868
e 866 872
e 866 867
e 866 868
e 866 873
e 867 872
e 867 871
e 867 868
e 868 869
e 868 870
e 868 871
e 868 879
e 869 878
e 869 875
e 869 879
e 869 870
e 870 875
e 870 874
e 870 871
e 871 874
e 871 872
e 872 874
e 872 873
e 873 891
e 873 874
e 874 875
e 874 876
e 874 891
e 875 876
e 875 877
e 875 878
e 876 877
e 876 889
e 876 890
e 876 891
e 877 887
e 877 878
e 877 888
e 877 889
e 878 879
e 878 880
e 878 885
e 878 887
e 879 880
e 879 928
e 880 885
e 880 881
e 880 928
e 881 883
e 881 882
e 881 885
e 881 928
e 882 927
e 882 926
e 882 922
e 882 883
e 882 928
e 883 884
e 883 922
e 883 885
e 884 922
e 884 920
e 884 919
e 884 886
e 884 885
e 885 886
e 885 887
e 886 919
e 886 918
e 886 887
e 886 898
e 886 888
e 887 888
e 888 898
e 888 889
e 888 890
e 888 897
e 889 890
e 890 897
e 890 895
e 890 893
e 890 892
e 890 891
e 891 892
e 892 893
e 893 895
e 893 894
e 894 895
e 894 896
e 895 896
e 895 897
e 896 897
e 897 906
e 897 898
e 898 906
e 898 899
e 898 918
e 899 901
e 899 900
e 899 918
e 899 905
e 899 906
e 900 901
e 900 902
e 900 905
e 901 917
e 901 916
e 901 902
e 901 918
e 902 905
e 902 903
e 902 916
e 903 915
e 903 904
e 903 905
e 903 916
e 904 908
e 904 914
e 904 915
e 904 905
e 904 907
e 905 907
e 905 906
e 906 907
e 906 1000
e 907 1000
e 907 908
e 908 914
e 908 909
e 908 1000
e 909 913
e 909 910
e 909 914
e 909 1000
e 910 911
e 910 913
e 911 912
e 911 913
e 912 913
e 912 929
e 913 929
e 913 925
e 913 914
e 914 925
e 914 915
e 915 925
e 915 924
e 915 916
e 916 924
e 916 923
e 916 917
e 917 923
e 917 921
e 917 920
e 917 918
e 918 920
e 918 919
e 919 920
e 920 922
e 920 921
e 921 922
e 921 923
e 922 923
e 922 926
e 923 924
e 923 926
e 924 925
e 924 926
e 925 929
e 925 927
e 925 926
e 926 927
e 927 929
e 927 928
e 928 930
e 928 929
e 928 931
e 928 942
e 929 930
e 930 931
e 931 940
e 931 932
e 931 933
e 931 934
e 931 942
e 932 935
e 932 936
e 932 940
e 932 933
e 933 934
e 933 935
e 934 935
e 934 937
e 934 957
e 935 937
e 935 936
e 936 939
e 936 937
e 936 940
e 937 939
e 937 938
e 937 956
e 937 957
e 938 954
e 938 955
e 938 956
e 938 939
e 939 940
e 939 954
e 940 954
e 940 941
e 940 942
e 941 943
e 941 942
e 941 952
e 941 953
e 941 954
e 942 943
e 943 951
e 943 952
e 945 948
e 945 951
e 947 983
e 947 982
e 947 949
e 947 989
e 947 948
e 948 949
e 948 950
e 948 951
e 949 982
e 949 978
e 949 977
e 949 976
e 949 950
e 950 951
e 950 976
e 950 964
e 950 963
e 951 963
e 951 952
e 952 963
e 952 992
e 952 953
e 953 992
e 953 955
e 953 954
e 954 955
e 955 992
e 955 960
e 955 956
e 956 960
e 956 959
e 956 957
e 957 959
e 957 958
e 958 959
e 959 960
e 960 992
e 960 961
e 961 963
e 961 962
e 961 992
e 962 964
e 962 963
e 963 964
e 963 992
e 964 976
e 964 965
e 965 967
e 965 966
e 965 976
e 966 967
e 966 972
e 966 976
e 967 972
e 967 968
e 968 970
e 968 969
e 968 971
e 968 974
e 968 973
e 968 972
e 969 986
e 969 981
e 969 970
e 970 981
e 970 980
e 970 971
e 971 980
e 971 974
e 972 973
e 972 975
e 972 976
e 973 975
e 973 974
e 974 980
e 974 979
e 974 978
e 974 975
e 975 978
e 975 977
e 975 976
e 976 977
e 977 978
e 978 982
e 978 979
e 979 982
e 979 981
e 979 980
e 980 981
e 981 986
e 981 985
e 981 984
e 981 982
e 982 984
e 982 983
e 983 988
e 983 989
e 983 984
e 984 987
e 984 988
e 984 985
e 985 987
e 985 986
e 986 987
e 987 988
e 988 989
e 943 945
e 945 947
